Route 1: 0 12 11 44 9 75 89 59 56 96 0
Route 2: 0 30 52 86 61 22 32 50 84 78 6 0
Route 3: 0 53 3 19 57 80 48 0
Route 4: 0 26 51 18 27 37 49 40 76 58 46 93 0
Route 5: 0 73 33 39 34 25 45 23 98 100 95 0
Route 6: 0 31 29 92 7 36 5 0
Route 7: 0 47 2 90 64 17 74 91 71 0
Route 8: 0 82 35 21 43 85 68 16 60 69 14 0
Route 9: 0 77 24 79 83 1 41 8 0
Route 10: 0 28 10 97 13 67 15 70 0
Route 11: 0 94 87 20 63 54 38 0
Route 12: 0 81 42 66 62 88 65 99 55 0
Route 13: 0 4 72 0
